n_machines = 3;
n_resources = 4;
n_jobs = 40;
horizon = 18811;
LB = 6270;
n_jobs_per_resource = [10, 10, 10, 10];
duration = [101, 583, 314, 405, 35, 986, 186, 167, 441, 758, 463, 790, 335, 673, 50, 154, 281, 621, 279, 534, 766, 273, 718, 356, 398, 390, 966, 384, 453, 843, 241, 894, 540, 917, 467, 873, 150, 86, 332, 608]